NAME: line_10_7
TYPE: TSP
COMMENT: line_10_7
DIMENSION: 10
EDGE_WEIGHT_TYPE: EUC_2D
NODE_COORD_SECTION
1 0.0 98.0
2 0.0 25.0
3 0.0 28.0
4 0.0 32.0
5 0.0 12.0
6 0.0 25.0
7 0.0 36.0
8 0.0 63.0
9 0.0 84.0
10 0.0 91.0
